(set-info :source |
 Generated by Alive 0.1
 More info in N. P. Lopes, D. Menendez, S. Nagarakatte, J. Regehr.
 Provably Correct Peephole Optimizations with Alive. In PLDI'15.
|)

(set-info :status unknown)
(declare-fun %x () (_ BitVec 14))
(declare-fun C () (_ BitVec 33))
(assert
 (let ((?x60160 ((_ sign_extend 19) %x)))
 (let (($x495278 (= C (bvsub (_ bv33 33) (_ bv14 33)))))
 (let (($x55679 (bvult C (_ bv33 33))))
 (and $x55679 $x55679 $x495278 (and (distinct (bvashr (bvshl ((_ zero_extend 19) %x) C) C) ?x60160) true))))))
(check-sat)
